RAW/CMTX/fspd/CMT14X.vrp_seed-8.out
821.7458258	0.332	28.84
