RAW/CMTX/fspd/CMT14X.vrp_seed-8.sol
Route #1: 20 24 25 27 29 30 28 26 22 21
Route #2: 5 3 7 8 11 9 6 4 1 75
Route #3: 2 99 100 97 93 92 94 95 96 98
Route #4: 90 87 86 83 82 84 85 88 89 91
Route #5: 67 65 62 74 72 61 64 68 66 69
Route #6: 10 12 14 16 15 19 18 17 13 23
Route #7: 32 33 34 36 39 38 37 35 31 52
Route #8: 43 42 44 45 46 48 51 50 49 47
Route #9: 81 78 76 71 70 73 77 79 80 63
Route #10: 57 55 54 53 56 58 60 59 40 41
Cost 821.745826